c 
c U(n,d) graph
c graph gen seed     : 571
c number of vertices : 70
c max number of edges: 2415
c Euclidean distance : 0.200000
c data structure     : sparse
c
c           Graph Stats
c number of vertices  : 70
c nonisolated vertices: 69
c number of edges     : 260
c edge density        : 0.107660
c max degree          : 13
c avg degree          : 7.43
c min degree          : 0
p col 70 260
e 1 69
e 1 68
e 1 60
e 1 56
e 1 37
e 1 7
e 1 6
e 2 61
e 2 55
e 2 54
e 2 31
e 2 30
e 2 27
e 2 26
e 2 25
e 2 16
e 3 64
e 3 46
e 3 40
e 3 34
e 3 33
e 3 24
e 4 69
e 4 60
e 4 56
e 4 53
e 4 37
e 4 21
e 5 59
e 5 58
e 5 54
e 5 50
e 5 49
e 5 36
e 5 35
e 5 27
e 5 23
e 6 68
e 6 60
e 6 56
e 6 37
e 6 28
e 6 21
e 6 9
e 6 7
e 7 68
e 7 60
e 7 37
e 8 66
e 8 48
e 8 45
e 8 41
e 8 20
e 8 18
e 8 13
e 9 53
e 9 51
e 9 44
e 9 29
e 9 28
e 9 21
e 10 61
e 10 55
e 10 45
e 10 44
e 10 31
e 10 29
e 10 25
e 10 20
e 10 13
e 11 61
e 11 55
e 11 31
e 11 30
e 11 26
e 11 25
e 12 64
e 12 57
e 12 40
e 12 33
e 12 32
e 12 24
e 12 17
e 13 70
e 13 66
e 13 65
e 13 45
e 13 44
e 13 41
e 13 29
e 13 20
e 13 19
e 13 18
e 14 67
e 14 52
e 14 39
e 14 30
e 14 27
e 14 26
e 14 22
e 14 16
e 15 70
e 15 66
e 15 65
e 15 62
e 15 51
e 15 19
e 15 18
e 16 67
e 16 59
e 16 54
e 16 50
e 16 39
e 16 27
e 16 23
e 16 22
e 17 64
e 17 57
e 17 40
e 17 34
e 17 33
e 17 24
e 18 70
e 18 66
e 18 65
e 18 62
e 18 45
e 18 41
e 18 20
e 18 19
e 19 70
e 19 66
e 19 65
e 19 62
e 19 51
e 19 41
e 19 20
e 20 70
e 20 66
e 20 65
e 20 45
e 20 44
e 20 41
e 20 29
e 21 53
e 21 51
e 21 44
e 21 28
e 22 67
e 22 52
e 22 43
e 22 39
e 22 27
e 22 23
e 23 67
e 23 59
e 23 58
e 23 54
e 23 50
e 23 39
e 23 27
e 24 64
e 24 46
e 24 42
e 24 40
e 24 34
e 24 33
e 25 61
e 25 55
e 25 54
e 25 31
e 25 30
e 25 26
e 26 61
e 26 55
e 26 31
e 26 30
e 26 27
e 27 67
e 27 59
e 27 54
e 27 50
e 27 39
e 28 68
e 28 53
e 28 51
e 28 44
e 28 29
e 29 70
e 29 66
e 29 51
e 29 45
e 29 44
e 30 61
e 30 31
e 31 61
e 31 55
e 32 57
e 32 36
e 32 35
e 33 64
e 33 40
e 33 34
e 34 64
e 34 46
e 34 40
e 35 49
e 35 42
e 35 36
e 36 57
e 36 54
e 37 69
e 37 68
e 37 60
e 37 56
e 38 63
e 38 48
e 39 67
e 39 59
e 39 58
e 39 50
e 40 64
e 41 70
e 41 66
e 41 65
e 41 45
e 42 64
e 42 49
e 42 46
e 43 67
e 43 52
e 44 70
e 44 66
e 44 51
e 44 45
e 45 70
e 45 66
e 45 55
e 46 64
e 48 63
e 50 67
e 50 59
e 50 58
e 50 54
e 51 70
e 51 66
e 51 53
e 52 67
e 54 61
e 55 61
e 56 69
e 56 60
e 58 59
e 59 67
e 60 69
e 60 68
e 62 65
e 65 70
e 65 66
e 66 70
